! wB97X-D3 SP def2-SVP
%pal
nprocs 24
end

* xyz 0 1
S 	 -70.6467 	 18.4133 	 -108.057 	 
C 	 -69.3335 	 18.9784 	 -107.035 	 
C 	 -68.481 	 19.8136 	 -107.708 	 
C 	 -68.7353 	 19.9641 	 -109.139 	 
C 	 -69.894 	 19.2294 	 -109.471 	 
H 	 -68.2595 	 20.6027 	 -109.908 	 
C 	 -67.4378 	 20.6623 	 -107.007 	 
H 	 -67.9619 	 21.0896 	 -106.171 	 
H 	 -67.201 	 21.4468 	 -107.777 	 
C 	 -66.2745 	 19.9218 	 -106.51 	 
H 	 -66.5754 	 19.1123 	 -105.852 	 
H 	 -65.9341 	 19.3215 	 -107.382 	 
C 	 -65.1303 	 20.8524 	 -106.047 	 
H 	 -64.1671 	 20.3206 	 -106.043 	 
H 	 -65.0833 	 21.7975 	 -106.583 	 
H 	 -65.2911 	 21.1847 	 -104.97 	 
S 	 -70.892 	 20.8901 	 -111.341 	 
C 	 -71.5174 	 20.2856 	 -112.842 	 
C 	 -71.4055 	 18.9312 	 -112.925 	 
C 	 -70.813 	 18.3655 	 -111.796 	 
C 	 -70.4468 	 19.2812 	 -110.827 	 
H 	 -71.7296 	 18.3354 	 -113.752 	 
C 	 -70.7424 	 16.8478 	 -111.667 	 
H 	 -71.5267 	 16.3604 	 -112.242 	 
H 	 -71.022 	 16.6329 	 -110.62 	 
C 	 -69.4073 	 16.1772 	 -112.007 	 
H 	 -69.0175 	 16.2782 	 -113.073 	 
H 	 -69.384 	 15.11 	 -111.928 	 
C 	 -68.232 	 16.6854 	 -111.14 	 
H 	 -68.516 	 16.4971 	 -110.089 	 
H 	 -67.8431 	 17.7128 	 -111.173 	 
H 	 -67.3422 	 16.0658 	 -111.302 	 
H 	 -69.1722 	 18.795 	 -105.986 	 
H 	 -71.9799 	 20.747 	 -113.669 	 
*
