! wB97X-D3 SP def2-SVP
%pal
nprocs 24
end

* xyz 0 1
S 	 -75.8761 	 -2.98633 	 4.27342 	 
C 	 -74.4854 	 -1.96598 	 4.30648 	 
C 	 -73.5158 	 -2.48331 	 3.41132 	 
C 	 -73.8379 	 -3.7571 	 2.83302 	 
C 	 -75.0073 	 -4.30933 	 3.30519 	 
H 	 -73.2347 	 -4.2983 	 2.07283 	 
C 	 -72.1487 	 -1.86192 	 3.18089 	 
H 	 -72.3659 	 -0.818249 	 3.08755 	 
H 	 -71.9645 	 -2.02273 	 2.08894 	 
C 	 -70.9076 	 -2.22109 	 4.14205 	 
H 	 -70.114 	 -1.55423 	 3.80505 	 
H 	 -71.0989 	 -1.90212 	 5.2186 	 
C 	 -70.5544 	 -3.67066 	 4.00721 	 
H 	 -69.5818 	 -3.87288 	 4.48224 	 
H 	 -71.2658 	 -4.4262 	 4.41737 	 
H 	 -70.3972 	 -3.87955 	 2.92183 	 
S 	 -75.4105 	 -5.90644 	 1.1081 	 
C 	 -76.3374 	 -7.37542 	 1.23861 	 
C 	 -76.6825 	 -7.66755 	 2.54347 	 
C 	 -76.2343 	 -6.64203 	 3.42303 	 
C 	 -75.5028 	 -5.58696 	 2.81587 	 
H 	 -77.2304 	 -8.57503 	 2.86862 	 
C 	 -76.6558 	 -6.638 	 4.83501 	 
H 	 -77.7465 	 -6.62887 	 4.94897 	 
H 	 -76.3457 	 -5.74402 	 5.4248 	 
C 	 -76.1653 	 -7.88614 	 5.62175 	 
H 	 -75.032 	 -7.93183 	 5.6861 	 
H 	 -76.447 	 -8.83839 	 5.10631 	 
C 	 -76.7252 	 -7.87045 	 7.05439 	 
H 	 -77.8142 	 -7.5702 	 7.1022 	 
H 	 -76.2554 	 -7.03522 	 7.5146 	 
H 	 -76.6114 	 -8.69033 	 7.72354 	 
H 	 -74.3256 	 -1.03979 	 4.87839 	 
H 	 -76.79 	 -7.96434 	 0.393277 	 
*
