! wB97X-D3 SP def2-SVP
%pal
nprocs 24
end

* xyz 0 1
S 	 -110.347 	 24.3751 	 -118.588 	 
C 	 -110.815 	 22.72 	 -118.013 	 
C 	 -109.9 	 22.3151 	 -117.013 	 
C 	 -108.804 	 23.2624 	 -116.82 	 
C 	 -108.899 	 24.4076 	 -117.581 	 
H 	 -108.042 	 23.2162 	 -116.091 	 
C 	 -110.055 	 21.0251 	 -116.279 	 
H 	 -109.663 	 20.2812 	 -116.919 	 
H 	 -111.154 	 20.9089 	 -116.15 	 
C 	 -109.4 	 20.8229 	 -114.955 	 
H 	 -109.534 	 19.7555 	 -114.633 	 
H 	 -108.336 	 20.8731 	 -115.194 	 
C 	 -109.725 	 21.9067 	 -113.924 	 
H 	 -109.434 	 22.9244 	 -114.21 	 
H 	 -110.804 	 21.8445 	 -113.704 	 
H 	 -109.209 	 21.6845 	 -112.956 	 
S 	 -108.744 	 26.9495 	 -118.342 	 
C 	 -107.234 	 27.7427 	 -118.166 	 
C 	 -106.296 	 27.0551 	 -117.459 	 
C 	 -106.736 	 25.7982 	 -117.026 	 
C 	 -108.041 	 25.5441 	 -117.487 	 
H 	 -105.38 	 27.4848 	 -117.342 	 
C 	 -105.74 	 24.7825 	 -116.411 	 
H 	 -105.757 	 23.964 	 -117.059 	 
H 	 -106.147 	 24.3394 	 -115.505 	 
C 	 -104.303 	 25.2737 	 -116.129 	 
H 	 -104.299 	 25.9789 	 -115.296 	 
H 	 -104.059 	 25.8661 	 -116.995 	 
C 	 -103.188 	 24.2779 	 -116.028 	 
H 	 -103.027 	 23.5804 	 -116.892 	 
H 	 -103.252 	 23.6142 	 -115.195 	 
H 	 -102.219 	 24.818 	 -116.057 	 
H 	 -111.759 	 22.1891 	 -118.367 	 
H 	 -106.936 	 28.5865 	 -118.717 	 
*
