! wB97X-D3 SP def2-SVP
%pal
nprocs 24
end

* xyz 0 1
S 	 -126.379 	 24.1164 	 -110.642 	 
C 	 -124.617 	 23.9813 	 -110.42 	 
C 	 -123.967 	 24.9603 	 -111.163 	 
C 	 -124.958 	 25.7671 	 -111.849 	 
C 	 -126.294 	 25.5969 	 -111.467 	 
H 	 -124.622 	 26.5273 	 -112.527 	 
C 	 -122.457 	 25.171 	 -111.249 	 
H 	 -122.275 	 25.7568 	 -112.103 	 
H 	 -121.948 	 24.3299 	 -111.602 	 
C 	 -121.828 	 25.8336 	 -109.993 	 
H 	 -121.814 	 24.9923 	 -109.278 	 
H 	 -120.801 	 26.1248 	 -110.273 	 
C 	 -122.519 	 27.0583 	 -109.437 	 
H 	 -121.999 	 27.368 	 -108.524 	 
H 	 -122.719 	 27.8001 	 -110.197 	 
H 	 -123.469 	 26.772 	 -108.98 	 
S 	 -128.818 	 25.2239 	 -112.514 	 
C 	 -129.644 	 26.6135 	 -113.229 	 
C 	 -128.849 	 27.7268 	 -113.261 	 
C 	 -127.612 	 27.5382 	 -112.52 	 
C 	 -127.457 	 26.2506 	 -112.034 	 
H 	 -129.222 	 28.6438 	 -113.751 	 
C 	 -126.493 	 28.5954 	 -112.355 	 
H 	 -125.886 	 28.2916 	 -111.497 	 
H 	 -126.902 	 29.5396 	 -111.99 	 
C 	 -125.591 	 28.9259 	 -113.568 	 
H 	 -126.179 	 29.4117 	 -114.375 	 
H 	 -125.134 	 28.0816 	 -114.012 	 
C 	 -124.248 	 29.7102 	 -113.121 	 
H 	 -123.666 	 30.1743 	 -113.921 	 
H 	 -123.552 	 29.1565 	 -112.479 	 
H 	 -124.562 	 30.499 	 -112.519 	 
H 	 -124.119 	 23.1644 	 -109.923 	 
H 	 -130.563 	 26.5838 	 -113.822 	 
*
