! wB97X-D3 SP def2-SVP
%pal
nprocs 24
end

* xyz 0 1
S 	 -94.2038 	 50.7682 	 -100.208 	 
C 	 -93.0209 	 51.5181 	 -99.0583 	 
C 	 -93.5727 	 52.6746 	 -98.5818 	 
C 	 -94.9104 	 52.9429 	 -99.0585 	 
C 	 -95.4699 	 51.9725 	 -99.8765 	 
H 	 -95.5529 	 53.7273 	 -98.5414 	 
C 	 -92.8916 	 53.5913 	 -97.5704 	 
H 	 -92.8079 	 54.5976 	 -97.9701 	 
H 	 -91.9242 	 53.2565 	 -97.3758 	 
C 	 -93.5994 	 53.7319 	 -96.2025 	 
H 	 -94.364 	 54.4998 	 -96.2565 	 
H 	 -94.101 	 52.7376 	 -96.087 	 
C 	 -92.6442 	 53.926 	 -94.9939 	 
H 	 -92.0163 	 53.0539 	 -94.7303 	 
H 	 -91.9453 	 54.7195 	 -95.2874 	 
H 	 -93.153 	 54.3001 	 -94.1134 	 
S 	 -97.4799 	 50.2932 	 -100.787 	 
C 	 -99.1651 	 50.7509 	 -100.676 	 
C 	 -99.2596 	 52.1092 	 -100.332 	 
C 	 -98.0049 	 52.6614 	 -100.163 	 
C 	 -96.9048 	 51.837 	 -100.174 	 
H 	 -100.195 	 52.625 	 -100.174 	 
C 	 -97.9535 	 54.1867 	 -99.8938 	 
H 	 -98.4448 	 54.7837 	 -100.661 	 
H 	 -96.9648 	 54.5116 	 -99.9443 	 
C 	 -98.5695 	 54.4795 	 -98.4932 	 
H 	 -98.006 	 53.9131 	 -97.6918 	 
H 	 -99.5888 	 54.2153 	 -98.4028 	 
C 	 -98.4849 	 55.9684 	 -98.1261 	 
H 	 -98.9978 	 56.5561 	 -98.8323 	 
H 	 -97.4995 	 56.2635 	 -98.0531 	 
H 	 -98.8735 	 56.1765 	 -97.123 	 
H 	 -92.0585 	 51.075 	 -98.8009 	 
H 	 -99.9481 	 50.0313 	 -100.803 	 
*
