! wB97X-D3 SP def2-SVP
%pal
nprocs 24
end

* xyz 0 1
S 	 -104.931 	 43.7477 	 -12.9784 	 
C 	 -104.982 	 45.5018 	 -12.7724 	 
C 	 -106.199 	 46.0065 	 -13.0686 	 
C 	 -107.151 	 44.9106 	 -13.3491 	 
C 	 -106.706 	 43.5955 	 -13.1225 	 
H 	 -108.116 	 45.1156 	 -13.7047 	 
C 	 -106.607 	 47.4275 	 -13.2037 	 
H 	 -107.009 	 47.5547 	 -14.2026 	 
H 	 -105.705 	 48.1099 	 -13.1162 	 
C 	 -107.55 	 48.0124 	 -12.1516 	 
H 	 -108.02 	 48.976 	 -12.3602 	 
H 	 -108.423 	 47.295 	 -12.0862 	 
C 	 -106.887 	 48.0916 	 -10.8099 	 
H 	 -106.87 	 47.1944 	 -10.2708 	 
H 	 -105.894 	 48.4036 	 -10.9337 	 
H 	 -107.457 	 48.7336 	 -10.2135 	 
S 	 -106.276 	 41.1401 	 -14.4106 	 
C 	 -107.479 	 39.9448 	 -14.6182 	 
C 	 -108.618 	 40.3943 	 -14.0067 	 
C 	 -108.533 	 41.679 	 -13.3683 	 
C 	 -107.266 	 42.2947 	 -13.4945 	 
H 	 -109.54 	 39.8562 	 -14.0168 	 
C 	 -109.66 	 42.403 	 -12.5882 	 
H 	 -110.193 	 43.081 	 -13.2685 	 
H 	 -109.231 	 42.8678 	 -11.7304 	 
C 	 -110.797 	 41.4429 	 -12.1263 	 
H 	 -110.365 	 40.534 	 -11.6709 	 
H 	 -111.306 	 40.9763 	 -13.041 	 
C 	 -111.893 	 42.0927 	 -11.3223 	 
H 	 -112.548 	 41.2529 	 -11.091 	 
H 	 -112.44 	 42.8062 	 -11.9379 	 
H 	 -111.49 	 42.4318 	 -10.2532 	 
H 	 -104.083 	 46.0637 	 -12.4957 	 
H 	 -107.388 	 38.9212 	 -15.0681 	 
*
