! wB97X-D3 SP def2-SVP
%pal
nprocs 24
end

* xyz 0 1
S 	 -97.2542 	 -27.9802 	 -59.4855 	 
C 	 -98.6638 	 -27.0519 	 -59.9629 	 
C 	 -98.3636 	 -25.8894 	 -60.6151 	 
C 	 -96.8936 	 -25.7124 	 -60.6332 	 
C 	 -96.171 	 -26.8231 	 -60.1551 	 
H 	 -96.3287 	 -24.9382 	 -61.15 	 
C 	 -99.3577 	 -24.9095 	 -61.2164 	 
H 	 -99.1957 	 -23.928 	 -60.7423 	 
H 	 -100.426 	 -25.1277 	 -60.9914 	 
C 	 -99.2536 	 -24.6057 	 -62.7491 	 
H 	 -99.8972 	 -23.7623 	 -62.885 	 
H 	 -98.3538 	 -24.2029 	 -63.0465 	 
C 	 -99.5113 	 -25.798 	 -63.7704 	 
H 	 -100.547 	 -26.1889 	 -63.8881 	 
H 	 -99.1111 	 -25.3559 	 -64.7202 	 
H 	 -98.8338 	 -26.6041 	 -63.4632 	 
S 	 -93.7891 	 -27.2795 	 -61.5123 	 
C 	 -92.2615 	 -27.4327 	 -60.5894 	 
C 	 -92.4596 	 -27.1858 	 -59.2622 	 
C 	 -93.856 	 -26.8387 	 -58.9352 	 
C 	 -94.7026 	 -26.9932 	 -60.0311 	 
H 	 -91.5853 	 -27.2415 	 -58.6591 	 
C 	 -94.4115 	 -26.6774 	 -57.5349 	 
H 	 -94.7293 	 -27.6273 	 -57.1955 	 
H 	 -95.3659 	 -26.0884 	 -57.5513 	 
C 	 -93.3555 	 -26.1339 	 -56.5715 	 
H 	 -93.1948 	 -25.0808 	 -56.7861 	 
H 	 -92.3927 	 -26.6001 	 -56.6086 	 
C 	 -93.8124 	 -26.2921 	 -55.1061 	 
H 	 -93.0011 	 -26.0138 	 -54.4172 	 
H 	 -94.0395 	 -27.2862 	 -54.8223 	 
H 	 -94.6097 	 -25.5923 	 -54.8194 	 
H 	 -99.6525 	 -27.3054 	 -59.82 	 
H 	 -91.2853 	 -27.7089 	 -61.035 	 
*
