! wB97X-D3 SP def2-SVP
%pal
nprocs 24
end

* xyz 0 1
S 	 -132.213 	 4.9577 	 7.73357 	 
C 	 -131.45 	 5.16052 	 6.15006 	 
C 	 -130.909 	 3.979 	 5.76607 	 
C 	 -130.925 	 2.96411 	 6.77103 	 
C 	 -131.533 	 3.35416 	 7.96314 	 
H 	 -130.495 	 1.98498 	 6.78206 	 
C 	 -130.339 	 3.71759 	 4.35588 	 
H 	 -129.969 	 4.7609 	 4.08674 	 
H 	 -131.176 	 3.52555 	 3.64533 	 
C 	 -129.189 	 2.66118 	 4.26938 	 
H 	 -128.43 	 2.85419 	 5.01973 	 
H 	 -129.629 	 1.6859 	 4.47988 	 
C 	 -128.538 	 2.4133 	 2.82911 	 
H 	 -129.267 	 1.97269 	 2.13592 	 
H 	 -128.258 	 3.39305 	 2.33008 	 
H 	 -127.722 	 1.68242 	 2.77719 	 
S 	 -131.441 	 3.24504 	 10.8426 	 
C 	 -132.011 	 1.82537 	 11.5578 	 
C 	 -132.407 	 0.850328 	 10.6586 	 
C 	 -132.309 	 1.27731 	 9.30663 	 
C 	 -131.817 	 2.59237 	 9.20462 	 
H 	 -132.822 	 -0.0705988 	 10.9514 	 
C 	 -132.742 	 0.353121 	 8.20787 	 
H 	 -132.483 	 0.846409 	 7.28276 	 
H 	 -133.864 	 0.314104 	 8.28574 	 
C 	 -132.382 	 -1.13172 	 8.31545 	 
H 	 -132.788 	 -1.71853 	 7.52277 	 
H 	 -132.733 	 -1.53059 	 9.31807 	 
C 	 -130.902 	 -1.45193 	 8.28815 	 
H 	 -130.339 	 -1.46459 	 7.31431 	 
H 	 -130.822 	 -2.49607 	 8.62291 	 
H 	 -130.307 	 -0.886757 	 9.02768 	 
H 	 -131.613 	 6.04744 	 5.50707 	 
H 	 -132.123 	 1.6714 	 12.658 	 
*
