! wB97X-D3 SP def2-SVP
%pal
nprocs 24
end

* xyz 0 1
S 	 -44.6016 	 18.786 	 24.9424 	 
C 	 -44.5838 	 20.5886 	 25.1721 	 
C 	 -45.3554 	 21.1745 	 24.2022 	 
C 	 -45.9939 	 20.2112 	 23.3928 	 
C 	 -45.6521 	 18.9319 	 23.5892 	 
H 	 -46.7061 	 20.4717 	 22.6072 	 
C 	 -45.4307 	 22.6599 	 23.9531 	 
H 	 -44.6249 	 23.1365 	 24.5268 	 
H 	 -46.3597 	 22.8891 	 24.3797 	 
C 	 -45.4933 	 23.2814 	 22.5044 	 
H 	 -46.3311 	 22.7833 	 21.8965 	 
H 	 -45.6753 	 24.3126 	 22.5713 	 
C 	 -44.1901 	 23.102 	 21.8484 	 
H 	 -43.2848 	 23.6146 	 22.326 	 
H 	 -43.9499 	 22.0455 	 21.6717 	 
H 	 -44.4007 	 23.6516 	 20.9436 	 
S 	 -46.8053 	 16.4472 	 23.8768 	 
C 	 -47.7571 	 15.7844 	 22.5526 	 
C 	 -47.3949 	 16.406 	 21.3633 	 
C 	 -46.5221 	 17.5889 	 21.5291 	 
C 	 -46.1969 	 17.7883 	 22.8843 	 
H 	 -47.765 	 16.0689 	 20.4185 	 
C 	 -45.9536 	 18.403 	 20.367 	 
H 	 -45.6501 	 19.4429 	 20.6399 	 
H 	 -46.8002 	 18.7059 	 19.6976 	 
C 	 -44.731 	 17.7368 	 19.6964 	 
H 	 -45.0919 	 16.7262 	 19.3001 	 
H 	 -43.9566 	 17.5858 	 20.4802 	 
C 	 -44.0065 	 18.5809 	 18.5693 	 
H 	 -43.5997 	 19.5365 	 18.9515 	 
H 	 -44.5553 	 18.779 	 17.6272 	 
H 	 -43.0917 	 17.9905 	 18.2474 	 
H 	 -44.0528 	 21.1341 	 25.878 	 
H 	 -48.2388 	 14.8069 	 22.4657 	 
*
