! wB97X-D3 SP def2-SVP
%pal
nprocs 24
end

* xyz 0 1
S 	 -91.6892 	 -5.85416 	 -116.567 	 
C 	 -90.9374 	 -4.81422 	 -115.395 	 
C 	 -91.1798 	 -3.45439 	 -115.563 	 
C 	 -92.2494 	 -3.22268 	 -116.548 	 
C 	 -92.6676 	 -4.44389 	 -117.178 	 
H 	 -92.5749 	 -2.25299 	 -116.798 	 
C 	 -90.5367 	 -2.33819 	 -114.768 	 
H 	 -90.392 	 -1.49725 	 -115.419 	 
H 	 -89.5235 	 -2.76223 	 -114.638 	 
C 	 -91.2051 	 -2.07865 	 -113.41 	 
H 	 -92.1174 	 -1.48969 	 -113.496 	 
H 	 -91.3898 	 -3.01805 	 -112.827 	 
C 	 -90.2076 	 -1.29595 	 -112.436 	 
H 	 -89.7805 	 -0.534406 	 -113.025 	 
H 	 -90.824 	 -0.782872 	 -111.741 	 
H 	 -89.3951 	 -1.95541 	 -112.076 	 
S 	 -93.0075 	 -5.42949 	 -119.707 	 
C 	 -94.4575 	 -5.18732 	 -120.55 	 
C 	 -95.2968 	 -4.2237 	 -119.901 	 
C 	 -94.704 	 -3.75398 	 -118.664 	 
C 	 -93.5896 	 -4.5331 	 -118.319 	 
H 	 -96.2266 	 -3.97096 	 -120.406 	 
C 	 -95.3833 	 -2.79039 	 -117.721 	 
H 	 -94.7908 	 -2.55457 	 -116.842 	 
H 	 -96.2831 	 -3.31175 	 -117.364 	 
C 	 -95.843 	 -1.49485 	 -118.432 	 
H 	 -96.6275 	 -1.65773 	 -119.133 	 
H 	 -94.9777 	 -1.03185 	 -118.913 	 
C 	 -96.2273 	 -0.421796 	 -117.506 	 
H 	 -96.494 	 0.474517 	 -118.03 	 
H 	 -95.5806 	 -0.0725826 	 -116.715 	 
H 	 -97.0646 	 -0.748626 	 -116.926 	 
H 	 -90.1692 	 -5.2172 	 -114.682 	 
H 	 -94.6248 	 -5.49687 	 -121.556 	 
*
