! wB97X-D3 SP def2-SVP
%pal
nprocs 24
end

* xyz 0 1
S 	 -83.2888 	 -42.7492 	 -88.2006 	 
C 	 -81.9145 	 -41.819 	 -87.638 	 
C 	 -80.8195 	 -42.5682 	 -87.5386 	 
C 	 -81.0522 	 -43.9735 	 -87.7525 	 
C 	 -82.3839 	 -44.2582 	 -88.128 	 
H 	 -80.4067 	 -44.8301 	 -87.6799 	 
C 	 -79.455 	 -41.9419 	 -87.0215 	 
H 	 -79.6082 	 -41.7311 	 -85.9306 	 
H 	 -79.336 	 -40.963 	 -87.5357 	 
C 	 -78.1403 	 -42.7602 	 -87.2385 	 
H 	 -78.2756 	 -43.7604 	 -86.9715 	 
H 	 -77.9063 	 -42.9513 	 -88.2993 	 
C 	 -76.9176 	 -42.0944 	 -86.5285 	 
H 	 -76.971 	 -42.0276 	 -85.416 	 
H 	 -75.9981 	 -42.5601 	 -86.7498 	 
H 	 -76.7357 	 -41.0586 	 -86.8986 	 
S 	 -84.6842 	 -45.7168 	 -88.0375 	 
C 	 -84.7665 	 -47.2419 	 -88.853 	 
C 	 -83.4705 	 -47.7084 	 -89.0675 	 
C 	 -82.4752 	 -46.7644 	 -88.8936 	 
C 	 -82.9911 	 -45.5864 	 -88.3828 	 
H 	 -83.3875 	 -48.6872 	 -89.5292 	 
C 	 -81.0371 	 -46.9732 	 -89.5207 	 
H 	 -80.9003 	 -47.9855 	 -89.8191 	 
H 	 -80.4445 	 -46.768 	 -88.6829 	 
C 	 -80.7164 	 -45.9576 	 -90.7366 	 
H 	 -79.6273 	 -45.8003 	 -90.9002 	 
H 	 -80.9624 	 -44.9494 	 -90.4751 	 
C 	 -81.5251 	 -46.2791 	 -91.963 	 
H 	 -81.1972 	 -45.6963 	 -92.8016 	 
H 	 -82.6045 	 -46.1786 	 -91.904 	 
H 	 -81.257 	 -47.2879 	 -92.1835 	 
H 	 -81.9938 	 -40.7455 	 -87.4286 	 
H 	 -85.6195 	 -47.8588 	 -89.0929 	 
*
