! wB97X-D3 SP def2-SVP
%pal
nprocs 24
end

* xyz 0 1
S 	 -115.164 	 16.2569 	 -113.882 	 
C 	 -114.676 	 16.9748 	 -115.396 	 
C 	 -115.061 	 18.2956 	 -115.44 	 
C 	 -115.936 	 18.6733 	 -114.368 	 
C 	 -116.107 	 17.6949 	 -113.489 	 
H 	 -116.459 	 19.5779 	 -114.217 	 
C 	 -114.736 	 19.3039 	 -116.574 	 
H 	 -115.692 	 19.64 	 -117.011 	 
H 	 -114.131 	 18.745 	 -117.369 	 
C 	 -113.85 	 20.4536 	 -116.065 	 
H 	 -113.628 	 20.9947 	 -116.918 	 
H 	 -114.423 	 21.1406 	 -115.454 	 
C 	 -112.593 	 20.0107 	 -115.198 	 
H 	 -112.171 	 19.1876 	 -115.723 	 
H 	 -111.787 	 20.7543 	 -115.217 	 
H 	 -112.833 	 19.8697 	 -114.148 	 
S 	 -118.675 	 17.2299 	 -112.305 	 
C 	 -118.741 	 17.5224 	 -110.607 	 
C 	 -117.532 	 18.1049 	 -110.099 	 
C 	 -116.474 	 18.0814 	 -111.002 	 
C 	 -116.898 	 17.7417 	 -112.277 	 
H 	 -117.424 	 18.3307 	 -109.034 	 
C 	 -115.018 	 18.3405 	 -110.582 	 
H 	 -114.473 	 17.5243 	 -111.006 	 
H 	 -114.888 	 18.1107 	 -109.58 	 
C 	 -114.522 	 19.7033 	 -110.809 	 
H 	 -115.06 	 20.3213 	 -110.094 	 
H 	 -114.815 	 20.1176 	 -111.788 	 
C 	 -113.05 	 19.9962 	 -110.584 	 
H 	 -112.527 	 19.5311 	 -111.385 	 
H 	 -112.83 	 19.5232 	 -109.66 	 
H 	 -112.772 	 21.0601 	 -110.438 	 
H 	 -113.914 	 16.5231 	 -116.068 	 
H 	 -119.622 	 17.6977 	 -110.003 	 
*
