! wB97X-D3 SP def2-SVP
%pal
nprocs 16
end

* xyz 0 1
S 	 -33.8915 	 58.4134 	 115.478 	 
C 	 -34.2875 	 57.7846 	 113.871 	 
C 	 -33.5264 	 58.3374 	 112.866 	 
C 	 -32.5856 	 59.3204 	 113.434 	 
C 	 -32.7289 	 59.5226 	 114.794 	 
H 	 -32.0226 	 60.0572 	 112.861 	 
C 	 -33.6657 	 58.104 	 111.386 	 
H 	 -33.1187 	 58.8594 	 110.763 	 
H 	 -34.7264 	 58.2125 	 111.084 	 
C 	 -33.0963 	 56.6956 	 111.13 	 
H 	 -32.2615 	 56.4863 	 111.691 	 
H 	 -33.8056 	 56.0078 	 111.622 	 
C 	 -32.8842 	 56.2898 	 109.687 	 
H 	 -32.4664 	 55.2969 	 109.625 	 
H 	 -33.8039 	 56.403 	 109.118 	 
H 	 -32.216 	 57.068 	 109.279 	 
S 	 -31.0018 	 59.7233 	 116.974 	 
C 	 -30.339 	 61.3089 	 117.396 	 
C 	 -30.7773 	 62.2727 	 116.533 	 
C 	 -31.6677 	 61.8312 	 115.51 	 
C 	 -31.8683 	 60.4371 	 115.57 	 
H 	 -30.484 	 63.2982 	 116.594 	 
C 	 -32.3443 	 62.8067 	 114.481 	 
H 	 -32.7442 	 62.2298 	 113.638 	 
H 	 -31.6238 	 63.4737 	 113.935 	 
C 	 -33.6218 	 63.5557 	 114.896 	 
H 	 -33.3441 	 64.0741 	 115.776 	 
H 	 -34.4682 	 62.9504 	 115.202 	 
C 	 -34.1109 	 64.4616 	 113.716 	 
H 	 -34.961 	 65.0571 	 113.932 	 
H 	 -34.4661 	 63.8444 	 112.885 	 
H 	 -33.2244 	 65.047 	 113.36 	 
H 	 -35.0165 	 57.0349 	 113.613 	 
H 	 -29.5187 	 61.4227 	 118.073 	 
*
