! wB97X-D3 SP def2-SVP
%pal
nprocs 16
end

* xyz 0 1
S 	 -48.8424 	 -0.111806 	 95.4147 	 
C 	 -50.5649 	 -0.230336 	 95.1722 	 
C 	 -51.1269 	 1.01968 	 95.027 	 
C 	 -50.1811 	 2.05748 	 95.1749 	 
C 	 -48.9618 	 1.61297 	 95.6167 	 
H 	 -50.3107 	 3.12525 	 95.2929 	 
C 	 -52.6012 	 1.33182 	 94.7423 	 
H 	 -52.9744 	 0.685066 	 94.0334 	 
H 	 -52.6258 	 2.26856 	 94.1866 	 
C 	 -53.6725 	 1.50917 	 95.8898 	 
H 	 -54.6526 	 1.74859 	 95.4511 	 
H 	 -53.9089 	 0.547754 	 96.3706 	 
C 	 -53.3151 	 2.59029 	 96.9039 	 
H 	 -53.245 	 3.68428 	 96.5475 	 
H 	 -53.9936 	 2.607 	 97.6856 	 
H 	 -52.3807 	 2.59677 	 97.3506 	 
S 	 -47.6926 	 3.25714 	 97.5331 	 
C 	 -46.2841 	 4.15094 	 96.8785 	 
C 	 -46.0477 	 4.0323 	 95.5084 	 
C 	 -46.9186 	 3.0237 	 94.9539 	 
C 	 -47.8339 	 2.49839 	 95.8613 	 
H 	 -45.2394 	 4.61221 	 95.014 	 
C 	 -46.8122 	 2.65923 	 93.4797 	 
H 	 -47.8384 	 2.62959 	 93.0889 	 
H 	 -46.3174 	 1.7141 	 93.281 	 
C 	 -45.9385 	 3.58441 	 92.6001 	 
H 	 -44.9541 	 3.39349 	 92.9296 	 
H 	 -46.0979 	 4.72532 	 92.5406 	 
C 	 -46.2494 	 3.22931 	 91.1085 	 
H 	 -46.0485 	 2.12553 	 90.9237 	 
H 	 -45.6747 	 3.84368 	 90.4128 	 
H 	 -47.2958 	 3.33882 	 90.8116 	 
H 	 -51.1887 	 -1.16268 	 95.2298 	 
H 	 -45.6423 	 4.80962 	 97.4907 	 
*
