! wB97X-D3 SP def2-SVP
%pal
nprocs 16
end

* xyz 0 1
S 	 2.12523 	 78.713 	 49.3907 	 
C 	 2.41045 	 79.8114 	 50.7285 	 
C 	 2.37114 	 79.22 	 51.9652 	 
C 	 1.91478 	 77.8307 	 51.8105 	 
C 	 1.64242 	 77.4772 	 50.5031 	 
H 	 1.7017 	 77.2156 	 52.6557 	 
C 	 2.81999 	 79.7603 	 53.3061 	 
H 	 3.42926 	 80.5919 	 53.0248 	 
H 	 3.51799 	 79.0522 	 53.7801 	 
C 	 1.5392 	 80.1401 	 54.0736 	 
H 	 0.967214 	 80.9488 	 53.6693 	 
H 	 0.869976 	 79.3528 	 54.0796 	 
C 	 1.82392 	 80.5083 	 55.5616 	 
H 	 0.874708 	 80.6514 	 56.0336 	 
H 	 2.41968 	 79.7713 	 56.1452 	 
H 	 2.33242 	 81.4521 	 55.5879 	 
S 	 2.13255 	 75.1113 	 49.0846 	 
C 	 0.840825 	 73.9887 	 48.978 	 
C 	 -0.245782 	 74.2895 	 49.7972 	 
C 	 -0.0402497 	 75.5152 	 50.5112 	 
C 	 1.1741 	 76.1529 	 50.1443 	 
H 	 -1.12124 	 73.6661 	 49.7816 	 
C 	 -1.16017 	 76.0781 	 51.4341 	 
H 	 -1.98311 	 76.0614 	 50.7628 	 
H 	 -1.03185 	 77.1157 	 51.6533 	 
C 	 -1.38469 	 75.2748 	 52.6779 	 
H 	 -1.41406 	 74.2303 	 52.3748 	 
H 	 -2.35592 	 75.4974 	 53.2223 	 
C 	 -0.23912 	 75.3812 	 53.7075 	 
H 	 0.0234973 	 76.4212 	 54.0214 	 
H 	 0.664379 	 74.8132 	 53.4211 	 
H 	 -0.372933 	 74.7991 	 54.6307 	 
H 	 2.83011 	 80.8062 	 50.5406 	 
H 	 0.908479 	 73.1227 	 48.308 	 
*
