! wB97X-D3 SP def2-SVP
%pal
nprocs 16
end

* xyz 0 1
S 	 -33.5804 	 60.1732 	 112.984 	 
C 	 -35.1518 	 60.9158 	 113 	 
C 	 -35.8428 	 60.5835 	 114.165 	 
C 	 -35.0182 	 59.8119 	 115.038 	 
C 	 -33.7292 	 59.793 	 114.675 	 
H 	 -35.2316 	 59.3974 	 115.985 	 
C 	 -37.2863 	 60.9021 	 114.392 	 
H 	 -37.6979 	 60.1153 	 114.974 	 
H 	 -37.7071 	 60.6452 	 113.475 	 
C 	 -37.6885 	 62.2149 	 114.953 	 
H 	 -37.2947 	 62.4389 	 115.942 	 
H 	 -37.3483 	 63.0159 	 114.371 	 
C 	 -39.2086 	 62.3777 	 115.07 	 
H 	 -39.331 	 63.4815 	 115.18 	 
H 	 -39.7285 	 61.9891 	 114.23 	 
H 	 -39.5518 	 61.9962 	 116.012 	 
S 	 -31.5345 	 58.0665 	 114.55 	 
C 	 -30.6514 	 57.6338 	 116.021 	 
C 	 -31.2309 	 58.296 	 117.126 	 
C 	 -32.3286 	 59.1187 	 116.802 	 
C 	 -32.6521 	 59.1649 	 115.469 	 
H 	 -30.7861 	 58.3657 	 118.086 	 
C 	 -32.9559 	 59.8523 	 118.002 	 
H 	 -33.4073 	 60.664 	 117.532 	 
H 	 -32.304 	 60.3056 	 118.728 	 
C 	 -33.9314 	 58.9176 	 118.816 	 
H 	 -33.3448 	 58.0794 	 119.263 	 
H 	 -34.5705 	 58.472 	 118.043 	 
C 	 -34.8323 	 59.6966 	 119.775 	 
H 	 -35.619 	 60.1455 	 119.143 	 
H 	 -34.1802 	 60.5156 	 120.173 	 
H 	 -35.221 	 59.0512 	 120.577 	 
H 	 -35.669 	 61.5095 	 112.184 	 
H 	 -29.7286 	 57.0701 	 116.146 	 
*
