! wB97X-D3 SP def2-SVP
%pal
nprocs 16
end

* xyz 0 1
S 	 -31.9677 	 32.1882 	 40.5877 	 
C 	 -30.298 	 32.4842 	 40.2641 	 
C 	 -29.4429 	 31.5193 	 40.9011 	 
C 	 -30.2499 	 30.6482 	 41.6978 	 
C 	 -31.593 	 30.8818 	 41.6847 	 
H 	 -29.9926 	 29.8994 	 42.4198 	 
C 	 -27.9079 	 31.5083 	 40.9564 	 
H 	 -27.6426 	 31.7275 	 42.0317 	 
H 	 -27.6188 	 32.45 	 40.4439 	 
C 	 -27.1332 	 30.2952 	 40.4814 	 
H 	 -27.1947 	 30.071 	 39.3934 	 
H 	 -26.0348 	 30.4371 	 40.589 	 
C 	 -27.4558 	 29.0122 	 41.2614 	 
H 	 -28.5382 	 28.8934 	 41.1656 	 
H 	 -27.1647 	 28.074 	 40.7615 	 
H 	 -27.212 	 29.1282 	 42.2933 	 
S 	 -32.7052 	 28.4036 	 42.2733 	 
C 	 -34.2449 	 28.3742 	 43.195 	 
C 	 -34.6676 	 29.6615 	 43.5332 	 
C 	 -33.6848 	 30.6176 	 43.2151 	 
C 	 -32.6418 	 30.1688 	 42.4342 	 
H 	 -35.628 	 29.8686 	 43.9623 	 
C 	 -33.7307 	 32.0478 	 43.7703 	 
H 	 -34.477 	 32.6492 	 43.2501 	 
H 	 -32.7044 	 32.4851 	 43.6555 	 
C 	 -34.1469 	 32.1439 	 45.293 	 
H 	 -35.2271 	 31.8709 	 45.3736 	 
H 	 -34.0921 	 33.2129 	 45.485 	 
C 	 -33.2808 	 31.4152 	 46.3126 	 
H 	 -33.3982 	 30.3209 	 46.1977 	 
H 	 -33.5052 	 31.6682 	 47.2889 	 
H 	 -32.2456 	 31.5351 	 46.0728 	 
H 	 -29.8487 	 33.3764 	 39.6924 	 
H 	 -34.8538 	 27.4631 	 43.3764 	 
*
