! wB97X-D3 SP def2-SVP
%pal
nprocs 16
end

* xyz 0 1
S 	 6.1798 	 -14.2076 	 54.5631 	 
C 	 7.03415 	 -13.6396 	 55.9356 	 
C 	 7.25321 	 -14.6754 	 56.8218 	 
C 	 6.73424 	 -15.9151 	 56.316 	 
C 	 6.08196 	 -15.8655 	 55.1066 	 
H 	 6.79775 	 -16.8195 	 56.8373 	 
C 	 8.06049 	 -14.5469 	 58.1536 	 
H 	 7.53343 	 -13.8693 	 58.8335 	 
H 	 9.06922 	 -14.1526 	 57.9786 	 
C 	 8.26272 	 -15.7928 	 58.9747 	 
H 	 7.30025 	 -16.2417 	 59.324 	 
H 	 8.73742 	 -16.523 	 58.3488 	 
C 	 9.11848 	 -15.5695 	 60.2772 	 
H 	 9.85534 	 -16.3714 	 60.5153 	 
H 	 9.73755 	 -14.664 	 60.2425 	 
H 	 8.33479 	 -15.4779 	 61.0568 	 
S 	 3.66938 	 -16.3938 	 54.3151 	 
C 	 3.21403 	 -18.0777 	 53.6468 	 
C 	 4.39071 	 -18.8665 	 53.7255 	 
C 	 5.57119 	 -18.2056 	 54.2384 	 
C 	 5.29999 	 -16.872 	 54.511 	 
H 	 4.3667 	 -19.8774 	 53.4289 	 
C 	 6.87543 	 -18.9981 	 54.4395 	 
H 	 6.65072 	 -20.024 	 54.7172 	 
H 	 7.47859 	 -18.469 	 55.2176 	 
C 	 7.74164 	 -19.1309 	 53.1546 	 
H 	 7.04918 	 -19.1855 	 52.304 	 
H 	 8.4071 	 -19.9732 	 53.3826 	 
C 	 8.69607 	 -17.9181 	 52.9103 	 
H 	 8.29896 	 -16.9436 	 53.1627 	 
H 	 8.95741 	 -17.9613 	 51.9271 	 
H 	 9.55235 	 -17.8895 	 53.5365 	 
H 	 7.46981 	 -12.656 	 55.9532 	 
H 	 2.20032 	 -18.3716 	 53.3677 	 
*
