! wB97X-D3 SP def2-SVP
%pal
nprocs 16
end

* xyz 0 1
S 	 6.86026 	 -7.46933 	 84.3483 	 
C 	 6.53135 	 -6.12473 	 83.2907 	 
C 	 5.72986 	 -5.24469 	 83.9648 	 
C 	 5.22786 	 -5.64249 	 85.258 	 
C 	 5.73874 	 -6.84585 	 85.5599 	 
H 	 4.56526 	 -5.20166 	 85.904 	 
C 	 5.36589 	 -3.89694 	 83.3935 	 
H 	 4.28298 	 -3.70028 	 83.4626 	 
H 	 5.57799 	 -3.85448 	 82.2886 	 
C 	 6.15343 	 -2.67572 	 84.0784 	 
H 	 5.66396 	 -1.71124 	 83.6779 	 
H 	 5.85302 	 -2.68963 	 85.1777 	 
C 	 7.66702 	 -2.83286 	 83.9763 	 
H 	 8.11851 	 -1.99664 	 84.5513 	 
H 	 8.02062 	 -3.78712 	 84.2938 	 
H 	 8.14279 	 -2.67793 	 83.0457 	 
S 	 5.00596 	 -9.44385 	 86.4251 	 
C 	 4.52039 	 -9.66215 	 88.0778 	 
C 	 4.7305 	 -8.52284 	 88.7839 	 
C 	 5.21365 	 -7.38566 	 87.9812 	 
C 	 5.33104 	 -7.66257 	 86.6489 	 
H 	 4.80255 	 -8.62189 	 89.8748 	 
C 	 5.60525 	 -6.13746 	 88.7646 	 
H 	 4.96193 	 -6.10413 	 89.632 	 
H 	 5.33399 	 -5.21397 	 88.1853 	 
C 	 7.00465 	 -6.1893 	 89.2406 	 
H 	 7.71961 	 -6.06896 	 88.3622 	 
H 	 7.26472 	 -7.0957 	 89.7108 	 
C 	 7.30816 	 -5.0635 	 90.2449 	 
H 	 7.45833 	 -4.10911 	 89.6436 	 
H 	 8.28445 	 -5.28772 	 90.7682 	 
H 	 6.42699 	 -4.88057 	 90.9748 	 
H 	 7.02631 	 -5.8574 	 82.4172 	 
H 	 4.51111 	 -10.567 	 88.4742 	 
*
