! wB97X-D3 SP def2-SVP
%pal
nprocs 16
end

* xyz 0 1
S 	 -29.284 	 74.8329 	 158.501 	 
C 	 -28.1097 	 75.927 	 157.715 	 
C 	 -28.6562 	 77.1592 	 157.632 	 
C 	 -29.9769 	 77.2263 	 158.117 	 
C 	 -30.4105 	 76.0831 	 158.731 	 
H 	 -30.5791 	 78.1802 	 158.254 	 
C 	 -28.0983 	 78.4968 	 157.041 	 
H 	 -26.9968 	 78.496 	 156.983 	 
H 	 -28.2752 	 79.3114 	 157.758 	 
C 	 -28.6554 	 78.9921 	 155.632 	 
H 	 -27.9279 	 79.8351 	 155.424 	 
H 	 -28.3666 	 78.2163 	 154.858 	 
C 	 -30.1538 	 79.4302 	 155.604 	 
H 	 -30.8075 	 78.5762 	 155.537 	 
H 	 -30.3285 	 79.8918 	 156.59 	 
H 	 -30.3615 	 80.0817 	 154.709 	 
S 	 -31.5307 	 75.81 	 161.139 	 
C 	 -33.2972 	 75.837 	 161.238 	 
C 	 -33.8726 	 75.6257 	 159.975 	 
C 	 -32.9586 	 75.6805 	 158.925 	 
C 	 -31.6711 	 75.9443 	 159.403 	 
H 	 -34.9799 	 75.5418 	 159.814 	 
C 	 -33.3735 	 75.368 	 157.478 	 
H 	 -32.6663 	 75.7913 	 156.776 	 
H 	 -34.3007 	 75.9141 	 157.343 	 
C 	 -33.7679 	 73.8794 	 157.205 	 
H 	 -34.4614 	 73.9363 	 156.451 	 
H 	 -34.3894 	 73.3041 	 157.938 	 
C 	 -32.6682 	 72.905 	 156.849 	 
H 	 -33.0919 	 71.9295 	 156.649 	 
H 	 -32.0717 	 72.774 	 157.798 	 
H 	 -32.0175 	 73.3212 	 156.082 	 
H 	 -27.0188 	 75.8337 	 157.778 	 
H 	 -33.8551 	 75.8267 	 162.146 	 
*
