! wB97X-D3 SP def2-SVP
%pal
nprocs 16
end

* xyz 0 1
S 	 -10.573 	 -1.32325 	 77.444 	 
C 	 -9.11436 	 -1.487 	 78.5083 	 
C 	 -9.3766 	 -2.2834 	 79.6478 	 
C 	 -10.7543 	 -2.73134 	 79.6888 	 
C 	 -11.5198 	 -2.36371 	 78.5707 	 
H 	 -11.3532 	 -3.0795 	 80.5891 	 
C 	 -8.45809 	 -2.48659 	 80.8707 	 
H 	 -7.43568 	 -2.79518 	 80.5173 	 
H 	 -8.95301 	 -3.28307 	 81.4255 	 
C 	 -8.42819 	 -1.19954 	 81.7373 	 
H 	 -7.84317 	 -0.440394 	 81.1433 	 
H 	 -9.43498 	 -0.804286 	 81.8261 	 
C 	 -7.66049 	 -1.48714 	 82.9363 	 
H 	 -6.57837 	 -1.65396 	 82.7971 	 
H 	 -7.69081 	 -0.58863 	 83.5468 	 
H 	 -7.8637 	 -2.48112 	 83.5151 	 
S 	 -13.829 	 -1.04816 	 79.005 	 
C 	 -15.3893 	 -1.88244 	 78.9021 	 
C 	 -15.2553 	 -3.14896 	 78.5277 	 
C 	 -13.8995 	 -3.57202 	 78.3997 	 
C 	 -12.978 	 -2.48253 	 78.5092 	 
H 	 -16.0529 	 -3.83737 	 78.2292 	 
C 	 -13.6103 	 -5.04588 	 78.1257 	 
H 	 -12.4871 	 -5.12633 	 77.9953 	 
H 	 -14.1216 	 -5.2446 	 77.1827 	 
C 	 -14.0665 	 -6.04334 	 79.2275 	 
H 	 -14.2191 	 -7.03338 	 78.8943 	 
H 	 -15.0866 	 -5.81189 	 79.6385 	 
C 	 -13.2479 	 -6.03127 	 80.6051 	 
H 	 -13.6394 	 -6.62285 	 81.4641 	 
H 	 -12.9284 	 -5.01358 	 81.0344 	 
H 	 -12.2389 	 -6.54444 	 80.5862 	 
H 	 -8.21374 	 -0.9002 	 78.4096 	 
H 	 -16.3574 	 -1.2991 	 78.9599 	 
*
