! wB97X-D3 SP def2-SVP
%pal
nprocs 16
end

* xyz 0 1
S 	 60.7264 	 24.2058 	 75.3158 	 
C 	 61.2795 	 25.3932 	 74.1915 	 
C 	 62.6694 	 25.3084 	 73.9892 	 
C 	 63.2697 	 24.2128 	 74.6926 	 
C 	 62.3103 	 23.6017 	 75.5041 	 
H 	 64.3435 	 23.9501 	 74.782 	 
C 	 63.5143 	 26.1672 	 73.0798 	 
H 	 64.3437 	 26.4978 	 73.6529 	 
H 	 62.9706 	 27.1013 	 72.8778 	 
C 	 63.9558 	 25.4338 	 71.7473 	 
H 	 64.5313 	 24.5173 	 71.8734 	 
H 	 63.1247 	 25.0645 	 71.2023 	 
C 	 64.7472 	 26.3125 	 70.7832 	 
H 	 65.3313 	 25.7417 	 70.0271 	 
H 	 64.1451 	 27.0758 	 70.3191 	 
H 	 65.4909 	 26.8585 	 71.3344 	 
S 	 63.3205 	 22.9502 	 78.1206 	 
C 	 63.2685 	 21.2068 	 78.5709 	 
C 	 62.9576 	 20.401 	 77.4812 	 
C 	 62.4194 	 21.1024 	 76.368 	 
C 	 62.6125 	 22.4974 	 76.4769 	 
H 	 62.9669 	 19.3364 	 77.6095 	 
C 	 62.0319 	 20.3532 	 75.1774 	 
H 	 62.8819 	 20.5993 	 74.4281 	 
H 	 61.0268 	 20.6657 	 74.7791 	 
C 	 61.852 	 18.7753 	 75.368 	 
H 	 62.7071 	 18.1892 	 75.6779 	 
H 	 61.7156 	 18.4675 	 74.3566 	 
C 	 60.6242 	 18.1887 	 76.1224 	 
H 	 60.5801 	 18.4709 	 77.1829 	 
H 	 60.5287 	 17.132 	 75.972 	 
H 	 59.7109 	 18.3997 	 75.6404 	 
H 	 60.5781 	 26.1663 	 73.7937 	 
H 	 63.5862 	 20.8086 	 79.5124 	 
*
