! wB97X-D3 SP def2-SVP
%pal
nprocs 16
end

* xyz 0 1
S 	 -95.2175 	 39.2621 	 125.905 	 
C 	 -95.179 	 38.7317 	 124.241 	 
C 	 -95.9713 	 39.5623 	 123.481 	 
C 	 -96.4909 	 40.7029 	 124.141 	 
C 	 -96.2843 	 40.6248 	 125.553 	 
H 	 -97.0407 	 41.5017 	 123.739 	 
C 	 -96.1198 	 39.2406 	 122 	 
H 	 -95.4387 	 38.4138 	 121.731 	 
H 	 -95.6103 	 40.0843 	 121.47 	 
C 	 -97.5305 	 38.8151 	 121.536 	 
H 	 -98.0352 	 38.1547 	 122.16 	 
H 	 -98.3007 	 39.6066 	 121.464 	 
C 	 -97.5408 	 38.1552 	 120.145 	 
H 	 -98.5239 	 37.8232 	 119.756 	 
H 	 -97.1711 	 38.7372 	 119.359 	 
H 	 -96.9145 	 37.2083 	 120.221 	 
S 	 -97.1983 	 40.8206 	 128.177 	 
C 	 -97.2374 	 42.3394 	 128.924 	 
C 	 -97.0399 	 43.3816 	 127.971 	 
C 	 -96.989 	 42.9369 	 126.641 	 
C 	 -96.652 	 41.5496 	 126.637 	 
H 	 -97.151 	 44.4222 	 128.246 	 
C 	 -96.754 	 43.9203 	 125.422 	 
H 	 -97.1698 	 43.4364 	 124.52 	 
H 	 -95.6375 	 44.1063 	 125.223 	 
C 	 -97.4251 	 45.2873 	 125.456 	 
H 	 -96.9482 	 45.9062 	 126.273 	 
H 	 -98.425 	 45.2541 	 125.723 	 
C 	 -97.2161 	 46.0985 	 124.152 	 
H 	 -97.5841 	 45.7307 	 123.179 	 
H 	 -96.1108 	 46.3325 	 124.079 	 
H 	 -97.7007 	 47.0288 	 124.162 	 
H 	 -94.729 	 37.8235 	 123.906 	 
H 	 -97.4461 	 42.5675 	 129.956 	 
*
