! wB97X-D3 SP def2-SVP
%pal
nprocs 16
end

* xyz 0 1
S 	 -40.7348 	 54.8661 	 109.667 	 
C 	 -42.3549 	 54.1245 	 109.907 	 
C 	 -43.0885 	 54.2617 	 108.749 	 
C 	 -42.2862 	 54.793 	 107.661 	 
C 	 -40.9738 	 55.1294 	 107.994 	 
H 	 -42.5456 	 54.7593 	 106.618 	 
C 	 -44.4997 	 53.8141 	 108.622 	 
H 	 -44.8654 	 53.8995 	 107.657 	 
H 	 -45.0592 	 54.463 	 109.303 	 
C 	 -44.798 	 52.3543 	 109.021 	 
H 	 -44.1875 	 51.6851 	 108.412 	 
H 	 -44.5464 	 52.3396 	 110.119 	 
C 	 -46.267 	 51.9817 	 108.857 	 
H 	 -46.3144 	 50.9115 	 108.897 	 
H 	 -46.9111 	 52.5275 	 109.506 	 
H 	 -46.5563 	 52.2934 	 107.828 	 
S 	 -38.5085 	 54.1792 	 107.193 	 
C 	 -37.6198 	 54.978 	 105.915 	 
C 	 -38.373 	 55.9234 	 105.291 	 
C 	 -39.6006 	 56.1911 	 106.073 	 
C 	 -39.8108 	 55.3283 	 107.1 	 
H 	 -37.8451 	 56.391 	 104.426 	 
C 	 -40.4961 	 57.4084 	 105.763 	 
H 	 -41.4419 	 57.1008 	 106.209 	 
H 	 -40.7206 	 57.3009 	 104.751 	 
C 	 -39.9935 	 58.8365 	 106.02 	 
H 	 -39.2781 	 59.1613 	 105.254 	 
H 	 -39.4447 	 58.7564 	 106.993 	 
C 	 -40.9138 	 59.9796 	 106.235 	 
H 	 -41.1588 	 60.2083 	 105.194 	 
H 	 -40.2665 	 60.8032 	 106.529 	 
H 	 -41.6922 	 59.7688 	 106.986 	 
H 	 -42.7445 	 53.6947 	 110.806 	 
H 	 -36.6751 	 54.7186 	 105.584 	 
*
