! wB97X-D3 SP def2-SVP
%pal
nprocs 16
end

* xyz 0 1
S 	 -11.754 	 58.1346 	 58.8048 	 
C 	 -10.8973 	 56.7618 	 58.3114 	 
C 	 -10.9671 	 55.7309 	 59.255 	 
C 	 -11.8111 	 56.0951 	 60.4032 	 
C 	 -12.2311 	 57.4361 	 60.3118 	 
H 	 -11.9527 	 55.5402 	 61.3271 	 
C 	 -10.4985 	 54.2619 	 59.0172 	 
H 	 -9.33337 	 54.3396 	 58.9758 	 
H 	 -10.6944 	 53.975 	 58.031 	 
C 	 -10.9404 	 53.0453 	 59.8379 	 
H 	 -10.4252 	 52.2754 	 59.254 	 
H 	 -10.5266 	 53.0361 	 60.8245 	 
C 	 -12.4727 	 52.8623 	 59.7893 	 
H 	 -12.6349 	 51.805 	 60.0318 	 
H 	 -13.0658 	 53.5157 	 60.5488 	 
H 	 -12.8468 	 53.1033 	 58.8305 	 
S 	 -12.3054 	 59.0938 	 62.5343 	 
C 	 -13.8342 	 59.7822 	 63.0451 	 
C 	 -14.8775 	 59.1921 	 62.3332 	 
C 	 -14.4517 	 58.2491 	 61.3031 	 
C 	 -13.0948 	 58.2086 	 61.1839 	 
H 	 -15.9069 	 59.315 	 62.5924 	 
C 	 -15.5119 	 57.5951 	 60.424 	 
H 	 -16.3244 	 57.1973 	 61.0031 	 
H 	 -15.0473 	 56.7677 	 59.9143 	 
C 	 -16.1989 	 58.5908 	 59.4409 	 
H 	 -16.7211 	 59.4174 	 59.9825 	 
H 	 -17.0784 	 58.0304 	 58.9679 	 
C 	 -15.2298 	 59.1084 	 58.3533 	 
H 	 -14.3874 	 59.6453 	 58.7355 	 
H 	 -15.7728 	 59.7891 	 57.7576 	 
H 	 -14.7497 	 58.3362 	 57.8065 	 
H 	 -10.255 	 56.743 	 57.3866 	 
H 	 -14.1279 	 60.3078 	 63.9718 	 
*
