! wB97X-D3 SP def2-SVP
%pal
nprocs 16
end

* xyz 0 1
S 	 -9.52672 	 49.6554 	 42.4524 	 
C 	 -11.2004 	 49.2697 	 42.684 	 
C 	 -11.3655 	 47.8887 	 42.6505 	 
C 	 -10.1714 	 47.1596 	 42.5309 	 
C 	 -9.06049 	 47.9398 	 42.4553 	 
H 	 -10.1201 	 46.1519 	 42.4538 	 
C 	 -12.7341 	 47.1502 	 42.8208 	 
H 	 -12.8281 	 46.3749 	 42.0687 	 
H 	 -13.6684 	 47.8204 	 42.6395 	 
C 	 -13.0333 	 46.5788 	 44.268 	 
H 	 -14.1005 	 46.1373 	 44.2844 	 
H 	 -12.3747 	 45.7092 	 44.4862 	 
C 	 -12.937 	 47.6895 	 45.4032 	 
H 	 -13.6437 	 48.5385 	 45.4471 	 
H 	 -13.0872 	 47.1861 	 46.3593 	 
H 	 -11.9609 	 48.2075 	 45.3554 	 
S 	 -7.27942 	 48.0343 	 40.4457 	 
C 	 -5.9768 	 46.9786 	 40.3822 	 
C 	 -5.90174 	 46.2291 	 41.525 	 
C 	 -6.92642 	 46.4759 	 42.4704 	 
C 	 -7.74293 	 47.5062 	 42.003 	 
H 	 -5.1254 	 45.4675 	 41.6486 	 
C 	 -7.03685 	 45.8647 	 43.8507 	 
H 	 -6.50106 	 44.8939 	 43.7712 	 
H 	 -8.0859 	 45.4919 	 43.8962 	 
C 	 -6.71127 	 46.7648 	 45.0153 	 
H 	 -7.22682 	 47.7526 	 44.9909 	 
H 	 -5.71505 	 47.0187 	 44.7992 	 
C 	 -6.91528 	 46.0463 	 46.2889 	 
H 	 -7.85105 	 45.4614 	 46.1906 	 
H 	 -7.11906 	 46.7739 	 47.0876 	 
H 	 -6.26951 	 45.2329 	 46.5842 	 
H 	 -11.9576 	 49.9882 	 43.0194 	 
H 	 -5.29056 	 46.8435 	 39.5426 	 
*
