! wB97X-D3 SP def2-SVP
%pal
nprocs 16
end

* xyz 0 1
S 	 -32.7998 	 59.969 	 109.954 	 
C 	 -32.7806 	 58.2423 	 109.526 	 
C 	 -31.7111 	 57.5826 	 110.205 	 
C 	 -30.7677 	 58.5221 	 110.767 	 
C 	 -31.1608 	 59.8207 	 110.622 	 
H 	 -29.8117 	 58.2581 	 111.19 	 
C 	 -31.2605 	 56.1845 	 110.048 	 
H 	 -31.9801 	 55.4968 	 110.603 	 
H 	 -30.3004 	 56.1713 	 110.501 	 
C 	 -31.0462 	 55.6522 	 108.694 	 
H 	 -31.8833 	 55.7121 	 108.067 	 
H 	 -30.271 	 56.401 	 108.363 	 
C 	 -30.631 	 54.1904 	 108.696 	 
H 	 -29.6053 	 54.0458 	 108.819 	 
H 	 -31.1834 	 53.692 	 109.464 	 
H 	 -30.9477 	 53.688 	 107.767 	 
S 	 -31.4741 	 62.2561 	 111.866 	 
C 	 -30.1933 	 63.4197 	 111.924 	 
C 	 -28.9817 	 62.8042 	 111.61 	 
C 	 -29.125 	 61.5161 	 111.028 	 
C 	 -30.4854 	 61.0647 	 111.103 	 
H 	 -28.0824 	 63.3929 	 111.62 	 
C 	 -27.9829 	 60.7406 	 110.338 	 
H 	 -27.4154 	 61.4865 	 109.79 	 
H 	 -28.3158 	 60.0465 	 109.589 	 
C 	 -27.0733 	 60.0026 	 111.263 	 
H 	 -27.5491 	 59.4182 	 112.064 	 
H 	 -26.3626 	 60.6079 	 111.759 	 
C 	 -26.1843 	 58.9951 	 110.521 	 
H 	 -25.3677 	 59.4069 	 109.836 	 
H 	 -26.7558 	 58.2548 	 109.983 	 
H 	 -25.6543 	 58.4736 	 111.293 	 
H 	 -33.4871 	 57.8594 	 108.855 	 
H 	 -30.3095 	 64.5512 	 112.071 	 
*
