! wB97X-D3 SP def2-SVP
%pal
nprocs 16
end

* xyz 0 1
S 	 1.33341 	 -25.7833 	 84.3261 	 
C 	 0.318174 	 -26.9243 	 83.5386 	 
C 	 0.961818 	 -28.1191 	 83.2018 	 
C 	 2.32417 	 -28.0508 	 83.6688 	 
C 	 2.61171 	 -26.9895 	 84.4415 	 
H 	 3.01338 	 -28.9215 	 83.6209 	 
C 	 0.389845 	 -29.2904 	 82.4359 	 
H 	 0.953226 	 -29.3143 	 81.4966 	 
H 	 -0.597494 	 -29.1416 	 82.102 	 
C 	 0.46785 	 -30.708 	 83.0764 	 
H 	 0.0420073 	 -31.5046 	 82.4624 	 
H 	 1.53702 	 -30.9491 	 83.2076 	 
C 	 -0.237671 	 -30.7726 	 84.4635 	 
H 	 -0.142196 	 -29.9233 	 85.1027 	 
H 	 -1.32906 	 -30.8366 	 84.4412 	 
H 	 0.172715 	 -31.7257 	 84.8685 	 
S 	 4.77972 	 -25.3459 	 84.6176 	 
C 	 6.08631 	 -25.6383 	 85.6854 	 
C 	 5.96916 	 -26.9184 	 86.1877 	 
C 	 4.72053 	 -27.51 	 85.8577 	 
C 	 3.95554 	 -26.7745 	 85.0184 	 
H 	 6.83004 	 -27.4143 	 86.6138 	 
C 	 4.33605 	 -28.9122 	 86.2894 	 
H 	 5.24732 	 -29.4163 	 86.5954 	 
H 	 4.08332 	 -29.4106 	 85.392 	 
C 	 3.41065 	 -29.1252 	 87.4795 	 
H 	 3.33427 	 -30.2397 	 87.5809 	 
H 	 2.39854 	 -28.6938 	 87.3659 	 
C 	 4.09619 	 -28.58 	 88.8 	 
H 	 3.60458 	 -28.7957 	 89.742 	 
H 	 4.20442 	 -27.5408 	 88.6634 	 
H 	 5.11483 	 -28.9729 	 88.813 	 
H 	 -0.713385 	 -26.6163 	 83.2594 	 
H 	 7.05976 	 -25.2145 	 85.7291 	 
*
