! wB97X-D3 SP def2-SVP
%pal
nprocs 16
end

* xyz 0 1
S 	 13.014 	 32.889 	 62.9042 	 
C 	 14.6026 	 32.5639 	 62.1484 	 
C 	 14.9402 	 33.5244 	 61.2124 	 
C 	 13.958 	 34.5403 	 61.0493 	 
C 	 12.7827 	 34.2072 	 61.7312 	 
H 	 14.2027 	 35.4636 	 60.4998 	 
C 	 16.2812 	 33.504 	 60.4306 	 
H 	 17.0196 	 33.4037 	 61.1831 	 
H 	 16.3769 	 34.5437 	 60.0125 	 
C 	 16.5046 	 32.4126 	 59.3777 	 
H 	 15.8354 	 32.6844 	 58.5104 	 
H 	 17.5 	 32.5158 	 58.7903 	 
C 	 16.4456 	 30.9269 	 59.7695 	 
H 	 16.8873 	 30.7344 	 60.7594 	 
H 	 15.3885 	 30.5387 	 59.7423 	 
H 	 17.0581 	 30.4648 	 58.9488 	 
S 	 10.9199 	 35.6536 	 63.1339 	 
C 	 9.8815 	 36.7263 	 62.2318 	 
C 	 9.98583 	 36.5678 	 60.8785 	 
C 	 10.9421 	 35.5941 	 60.4996 	 
C 	 11.5808 	 35.0408 	 61.6112 	 
H 	 9.36765 	 37.1409 	 60.1935 	 
C 	 11.2597 	 35.1389 	 59.1022 	 
H 	 11.6149 	 34.1092 	 59.0917 	 
H 	 12.0993 	 35.7595 	 58.7409 	 
C 	 10.2609 	 35.2884 	 58.0038 	 
H 	 10.7718 	 34.8424 	 57.1027 	 
H 	 9.98929 	 36.3584 	 57.797 	 
C 	 8.83701 	 34.6276 	 58.1595 	 
H 	 8.98171 	 33.5419 	 58.1793 	 
H 	 8.34185 	 34.9621 	 57.2295 	 
H 	 8.21497 	 35.055 	 58.9515 	 
H 	 15.2953 	 31.7513 	 62.3743 	 
H 	 9.19411 	 37.4251 	 62.6471 	 
*
