! wB97X-D3 SP def2-SVP
%pal
nprocs 16
end

* xyz 0 1
S 	 2.70894 	 -22.3998 	 63.062 	 
C 	 1.09493 	 -22.5703 	 63.6621 	 
C 	 0.39833 	 -23.3784 	 62.8186 	 
C 	 1.07648 	 -23.7942 	 61.5935 	 
C 	 2.30027 	 -23.1535 	 61.4983 	 
H 	 0.711891 	 -24.4597 	 60.7946 	 
C 	 -0.975335 	 -23.9576 	 63.1837 	 
H 	 -1.34997 	 -23.5463 	 64.1231 	 
H 	 -0.756581 	 -25.0451 	 63.3197 	 
C 	 -2.16864 	 -23.8209 	 62.2546 	 
H 	 -1.84282 	 -24.1647 	 61.2549 	 
H 	 -3.09653 	 -24.3581 	 62.6283 	 
C 	 -2.66896 	 -22.4003 	 61.9566 	 
H 	 -3.0487 	 -21.916 	 62.9035 	 
H 	 -1.80707 	 -21.754 	 61.6855 	 
H 	 -3.45487 	 -22.4558 	 61.2138 	 
S 	 4.66022 	 -24.3729 	 61.0232 	 
C 	 5.22733 	 -24.4947 	 59.3714 	 
C 	 4.49106 	 -23.7335 	 58.5219 	 
C 	 3.3377 	 -23.1537 	 59.1397 	 
C 	 3.30383 	 -23.4239 	 60.5223 	 
H 	 4.75701 	 -23.7577 	 57.5017 	 
C 	 2.25826 	 -22.2891 	 58.412 	 
H 	 2.27378 	 -21.2617 	 58.8289 	 
H 	 1.36308 	 -22.7951 	 58.5736 	 
C 	 2.47882 	 -22.0467 	 56.873 	 
H 	 1.50007 	 -21.8394 	 56.4283 	 
H 	 2.90487 	 -22.9871 	 56.5439 	 
C 	 3.49935 	 -20.9093 	 56.4462 	 
H 	 3.15398 	 -19.9807 	 56.8696 	 
H 	 3.58129 	 -20.8255 	 55.3586 	 
H 	 4.5024 	 -21.1128 	 56.8468 	 
H 	 0.736713 	 -22.3722 	 64.6939 	 
H 	 6.22967 	 -24.856 	 59.1063 	 
*
