! wB97X-D3 SP def2-SVP
%pal
nprocs 16
end

* xyz 0 1
S 	 -16.3225 	 37.1675 	 38.7942 	 
C 	 -17.152 	 36.7072 	 37.2448 	 
C 	 -16.1989 	 36.1562 	 36.3293 	 
C 	 -14.9568 	 36.0731 	 36.9539 	 
C 	 -14.8124 	 36.643 	 38.2119 	 
H 	 -14.0026 	 35.906 	 36.479 	 
C 	 -16.4654 	 35.7804 	 34.8975 	 
H 	 -15.5264 	 35.6182 	 34.39 	 
H 	 -16.9546 	 36.6157 	 34.5278 	 
C 	 -17.3245 	 34.5076 	 34.7382 	 
H 	 -18.1134 	 34.6249 	 35.4484 	 
H 	 -17.8138 	 34.2789 	 33.7348 	 
C 	 -16.5807 	 33.2145 	 34.9569 	 
H 	 -15.9591 	 33.1854 	 35.7802 	 
H 	 -17.2994 	 32.3804 	 35.1 	 
H 	 -15.9134 	 33.0134 	 34.1856 	 
S 	 -13.2259 	 37.7715 	 39.9969 	 
C 	 -11.6728 	 37.1254 	 40.429 	 
C 	 -11.5149 	 35.899 	 39.8752 	 
C 	 -12.5887 	 35.5722 	 39.0172 	 
C 	 -13.6251 	 36.4562 	 39.0318 	 
H 	 -10.663 	 35.3019 	 40.1109 	 
C 	 -12.5264 	 34.3115 	 38.2412 	 
H 	 -12.0379 	 34.496 	 37.261 	 
H 	 -13.6054 	 34.0648 	 37.8766 	 
C 	 -11.991 	 32.9997 	 38.9462 	 
H 	 -12.522 	 32.9963 	 39.9107 	 
H 	 -10.9651 	 33.1881 	 39.3083 	 
C 	 -12.2785 	 31.7394 	 38.0656 	 
H 	 -12.2908 	 30.8067 	 38.6557 	 
H 	 -11.5527 	 31.5184 	 37.2443 	 
H 	 -13.2804 	 31.8467 	 37.6251 	 
H 	 -18.181 	 36.8074 	 36.9197 	 
H 	 -10.9586 	 37.6476 	 41.0224 	 
*
