! wB97X-D3 SP def2-SVP
%pal
nprocs 16
end

* xyz 0 1
S 	 -71.3865 	 50.1063 	 124.048 	 
C 	 -70.5177 	 49.7229 	 122.592 	 
C 	 -69.3522 	 49.1177 	 122.892 	 
C 	 -69.0914 	 48.9853 	 124.28 	 
C 	 -70.0866 	 49.503 	 125.105 	 
H 	 -68.2361 	 48.5343 	 124.634 	 
C 	 -68.3574 	 48.5146 	 121.922 	 
H 	 -67.347 	 48.6553 	 122.228 	 
H 	 -68.4916 	 49.0016 	 120.952 	 
C 	 -68.5364 	 46.9906 	 121.532 	 
H 	 -68.6068 	 46.4962 	 122.521 	 
H 	 -69.4923 	 46.9746 	 121.018 	 
C 	 -67.5494 	 46.3814 	 120.641 	 
H 	 -67.8215 	 45.3426 	 120.643 	 
H 	 -67.5309 	 46.7318 	 119.624 	 
H 	 -66.5442 	 46.452 	 120.954 	 
S 	 -69.7823 	 51.1605 	 127.31 	 
C 	 -70.0705 	 50.4444 	 128.886 	 
C 	 -70.0154 	 49.1116 	 128.883 	 
C 	 -70.0205 	 48.618 	 127.527 	 
C 	 -70.0463 	 49.578 	 126.546 	 
H 	 -70.1536 	 48.5534 	 129.757 	 
C 	 -70.2955 	 47.0687 	 127.304 	 
H 	 -69.4568 	 46.5041 	 127.735 	 
H 	 -70.1023 	 46.8424 	 126.236 	 
C 	 -71.6703 	 46.497 	 127.75 	 
H 	 -71.847 	 46.8085 	 128.811 	 
H 	 -71.7854 	 45.4069 	 127.715 	 
C 	 -72.8547 	 47.2579 	 127.152 	 
H 	 -72.8654 	 47.1656 	 126.05 	 
H 	 -73.0581 	 48.2892 	 127.466 	 
H 	 -73.7899 	 46.7431 	 127.512 	 
H 	 -71.023 	 49.8303 	 121.669 	 
H 	 -70.1271 	 51.0547 	 129.758 	 
*
