! wB97X-D3 SP def2-SVP
%pal
nprocs 16
end

* xyz 0 1
S 	 -56.2535 	 31.5872 	 101.51 	 
C 	 -57.6629 	 30.6124 	 101.309 	 
C 	 -57.3181 	 29.3403 	 100.831 	 
C 	 -55.9269 	 29.3345 	 100.41 	 
C 	 -55.2674 	 30.5397 	 100.494 	 
H 	 -55.4784 	 28.4103 	 100.001 	 
C 	 -58.2113 	 28.0822 	 100.698 	 
H 	 -59.1807 	 28.3454 	 100.251 	 
H 	 -58.5093 	 27.88 	 101.724 	 
C 	 -57.6366 	 26.8451 	 100.07 	 
H 	 -57.3607 	 27.0526 	 99.0609 	 
H 	 -56.7557 	 26.5081 	 100.639 	 
C 	 -58.7995 	 25.8697 	 100.055 	 
H 	 -59.7926 	 26.3141 	 99.8193 	 
H 	 -58.595 	 25.1242 	 99.2568 	 
H 	 -58.8043 	 25.3337 	 101.044 	 
S 	 -53.1285 	 31.8922 	 101.465 	 
C 	 -51.6361 	 31.8425 	 100.665 	 
C 	 -51.5921 	 30.865 	 99.7104 	 
C 	 -52.8119 	 30.167 	 99.578 	 
C 	 -53.7979 	 30.7519 	 100.389 	 
H 	 -50.5856 	 30.6991 	 99.2153 	 
C 	 -53.0262 	 29.0969 	 98.506 	 
H 	 -52.5017 	 29.403 	 97.6608 	 
H 	 -54.0675 	 29.1717 	 98.1935 	 
C 	 -52.6182 	 27.7232 	 99.0279 	 
H 	 -53.336 	 27.597 	 99.8651 	 
H 	 -51.5507 	 27.6081 	 99.3107 	 
C 	 -52.9557 	 26.6381 	 97.9892 	 
H 	 -52.1787 	 26.5232 	 97.1173 	 
H 	 -53.9035 	 26.7563 	 97.4753 	 
H 	 -53.1037 	 25.6764 	 98.5388 	 
H 	 -58.625 	 30.8844 	 101.736 	 
H 	 -50.7411 	 32.4839 	 100.896 	 
*
