! wB97X-D3 SP def2-SVP
%pal
nprocs 16
end

* xyz 0 1
S 	 27.8457 	 32.4282 	 57.8168 	 
C 	 27.4378 	 30.8377 	 57.3033 	 
C 	 27.8342 	 30.6256 	 55.9876 	 
C 	 28.8045 	 31.576 	 55.5787 	 
C 	 28.9981 	 32.6415 	 56.473 	 
H 	 29.2981 	 31.5278 	 54.5935 	 
C 	 27.5671 	 29.4342 	 55.0838 	 
H 	 28.4725 	 28.866 	 55.1107 	 
H 	 27.4341 	 29.7912 	 54.0485 	 
C 	 26.3993 	 28.5113 	 55.3678 	 
H 	 26.5066 	 28.0617 	 56.4208 	 
H 	 25.5013 	 29.1437 	 55.228 	 
C 	 26.3625 	 27.4234 	 54.3121 	 
H 	 25.4242 	 26.8493 	 54.3029 	 
H 	 26.4689 	 27.752 	 53.2738 	 
H 	 27.157 	 26.7493 	 54.5137 	 
S 	 28.9837 	 35.4358 	 56.6927 	 
C 	 30.4581 	 36.3669 	 56.3546 	 
C 	 31.5262 	 35.487 	 56.0942 	 
C 	 31.1281 	 34.0994 	 56.2039 	 
C 	 29.7677 	 33.8964 	 56.3915 	 
H 	 32.538 	 35.8251 	 55.8899 	 
C 	 32.1206 	 32.9913 	 56.1225 	 
H 	 31.5589 	 32.081 	 56.3586 	 
H 	 32.6615 	 33.1354 	 57.062 	 
C 	 32.9635 	 32.9694 	 54.8134 	 
H 	 33.6616 	 32.1811 	 55.053 	 
H 	 33.5595 	 33.8996 	 54.6956 	 
C 	 32.2166 	 32.5615 	 53.5212 	 
H 	 32.8229 	 32.7221 	 52.6965 	 
H 	 31.3302 	 33.0926 	 53.2988 	 
H 	 31.9051 	 31.554 	 53.5456 	 
H 	 26.7228 	 30.1579 	 57.7686 	 
H 	 30.4095 	 37.49 	 56.2781 	 
*
